
  12    4
  10   10   10   10

   0   0   0   0   0   3 2 3 5 
   5  10  10  10  10   3 11 10 6 
   3  10  10  10  10   2 8 4 
   1  10  10  10  10   2 9 7 
   6  10  10  10  10   2 8 7 
   3  10  10  10  10   1 7 
   4  10  10  10  10   1 12
   1  10  10  10  10   1 12
   4  10  10  10  10   1 12
   6  10  10  10  10   1 12
   7  10  10  10  10   1 12
   0   0   0   0   0   0 
